p cnf 13 226
c Factors encoded in variables 1-6 and 7-12
c Target number: 3600
-3 -9 8 -13 13 0
3 2 8 13 13 13 13 0
-2 7 -13 -13 -13 0
3 -1 -13 -13 13 13 0
-2 9 -7 13 -13 -13 -13 0
-3 -9 -13 -13 -13 13 0
-3 -9 -7 13 13 13 0
-3 -1 -13 13 13 13 0
1 8 -13 13 -13 0
-9 -8 -13 -13 0
3 1 8 -13 0
2 -7 -13 13 0
-3 1 8 -13 13 0
13 -13 13 -13 -13 13 0
-8 13 -13 13 -13 0
3 -2 -9 7 13 -13 13 13 0
8 7 -13 0
3 -8 -7 -13 13 13 0
3 9 -13 -13 -13 13 0
2 1 -9 8 13 13 -13 0
-3 8 7 -13 0
-3 -2 -8 -13 -13 13 -13 -13 0
2 8 13 13 13 -13 13 0
-1 -7 13 0
2 9 -13 0
-3 1 9 8 7 -13 0
9 -7 13 -13 13 13 13 0
2 8 13 -13 -13 13 0
-3 2 -9 8 -13 13 13 0
-3 -2 9 -8 -13 13 0
-7 -13 13 13 13 -13 13 0
3 2 -13 -13 -13 0
-13 -13 13 -13 -13 0
-3 -1 13 13 -13 13 0
3 -9 8 7 13 13 13 0
9 -8 13 13 13 -13 13 -13 0
2 -8 7 -13 13 0
-3 2 8 -13 -13 13 13 0
3 2 1 9 8 7 -13 0
-13 -13 -13 13 -13 0
-2 1 -8 13 0
1 -13 -13 -13 0
-2 -8 -13 -13 -13 0
-3 2 -9 -13 13 0
3 2 9 8 -13 -13 13 0
-2 13 -13 0
-8 7 -13 13 13 13 0
-3 9 13 -13 0
-13 -13 -13 0
-3 -9 7 -13 13 13 0
-3 2 -9 -13 -13 0
-2 -8 -13 0
3 9 -13 -13 0
3 -9 13 13 13 0
-2 9 7 13 -13 0
-2 1 -13 -13 13 13 0
-3 9 13 -13 13 0
-3 -2 -8 -7 -13 13 0
-3 -2 -9 8 -13 13 13 0
-13 -13 0
2 -1 13 13 13 13 13 0
9 -8 13 -13 -13 13 -13 0
9 7 13 13 -13 -13 0
-9 -8 13 -13 13 0
3 9 13 13 13 0
3 1 8 7 13 13 0
3 13 13 -13 -13 13 -13 0
2 1 -9 -13 0
3 9 13 -13 0
3 -9 13 -13 0
2 8 -13 -13 13 0
3 7 13 -13 0
9 8 13 13 13 -13 0
9 8 -13 -13 0
-3 2 1 9 8 13 13 0
-3 -2 -13 -13 0
3 2 7 -13 0
9 -8 7 13 13 13 13 0
-3 -2 8 -13 -13 13 0
-3 -2 9 -13 13 0
-3 -2 -9 13 13 -13 -13 0
3 8 13 -13 -13 0
-2 9 -8 13 13 0
2 -9 7 -13 13 0
-2 8 -13 -13 13 0
3 2 9 13 13 0
2 1 7 -13 -13 0
3 -2 1 -13 -13 13 0
10 0
1 9 13 -13 0
3 8 13 -13 13 0
2 8 -13 0
1 -8 -7 13 -13 13 0
-3 7 -13 -13 0
3 2 -9 8 -13 -13 13 0
2 9 7 -13 0
-3 2 9 8 13 -13 0
-3 -2 13 -13 13 0
2 -9 -8 -13 -13 13 0
1 7 -13 0
-2 -1 8 13 13 0
3 2 -13 -13 0
2 -8 13 13 -13 13 0
3 2 -9 7 -13 13 0
-3 -13 -13 -13 13 -13 0
-3 1 -13 0
3 -13 0
-9 7 -13 0
-3 -2 -9 -13 13 13 0
-2 -9 8 -13 13 13 0
1 -9 -8 -13 0
1 8 13 -13 13 0
2 -9 7 13 -13 0
-8 -13 -13 -13 -13 0
-3 -9 13 -13 -13 0
2 1 13 -13 -13 0
3 9 -13 13 13 13 -13 0
-13 13 -13 13 13 -13 0
2 8 -13 13 0
1 8 -13 -13 -13 0
-8 13 13 13 -13 0
11 0
-3 1 -8 -13 13 13 0
-3 -13 13 -13 -13 -13 0
-3 -2 -9 13 13 13 0
3 2 -9 -8 -13 13 -13 0
-13 13 13 -13 0
3 -7 13 13 13 0
-2 -8 -13 -13 0
-3 2 7 13 13 -13 0
-8 13 13 13 13 -13 0
-3 -2 9 8 13 -13 13 0
-2 9 -13 13 -13 -13 13 0
3 1 -8 13 -13 0
3 -13 13 -13 13 -13 0
-2 1 -9 8 13 13 0
2 -8 -7 -13 13 13 0
3 2 9 8 -13 -13 0
-9 -7 13 13 13 13 0
-3 -2 1 -9 13 13 13 13 0
-9 -8 13 13 13 -13 13 0
-2 9 13 -13 -13 0
-3 -8 -7 -13 13 13 0
3 8 -13 13 13 13 -13 0
3 2 -8 -13 13 -13 0
-1 -9 13 13 13 0
9 8 -13 13 0
2 9 13 13 13 -13 -13 0
-2 8 13 -13 -13 13 0
-2 -9 8 13 13 0
-3 -9 8 -13 -13 13 0
2 -1 13 13 13 0
12 0
-13 -13 -13 -13 0
-9 -7 -13 13 13 13 0
1 -9 7 -13 -13 0
-3 1 -9 7 -13 -13 0
2 7 -13 13 -13 0
-3 8 13 -13 -13 -13 0
2 -13 -13 0
-9 8 13 13 13 -13 0
2 -1 -8 13 0
4 0
3 1 -9 13 -13 13 0
1 -9 13 -13 13 13 0
9 8 13 13 -13 13 13 -13 0
1 -9 -13 -13 0
3 1 9 7 -13 0
-9 13 -13 13 -13 13 0
-2 13 -13 13 0
-8 13 -13 -13 -13 0
2 8 13 -13 -13 -13 0
3 -2 -9 8 -13 13 13 0
3 13 -13 -13 13 0
-3 9 7 13 -13 13 0
2 1 -9 8 -13 13 -13 0
-2 1 13 -13 13 13 -13 0
3 9 8 13 -13 13 13 0
2 13 13 13 -13 0
3 9 13 -13 13 -13 0
-2 -8 13 13 13 0
-2 -1 -9 13 -13 13 0
-3 2 -8 13 13 0
-3 -2 -8 13 -13 13 -13 13 0
-3 -2 -8 13 -13 13 0
3 -9 -7 13 13 0
-9 -8 -7 -13 13 13 0
3 2 9 8 13 13 0
-3 -9 -13 -13 0
3 -9 7 -13 -13 -13 0
13 13 -13 13 -13 0
5 0
1 -13 0
1 9 7 13 -13 0
-3 2 9 8 -13 -13 0
-3 -8 13 -13 -13 -13 0
-2 8 13 13 -13 13 0
-3 1 7 -13 -13 0
3 2 -8 -13 -13 13 0
-3 2 9 8 13 -13 13 0
9 8 -13 -13 -13 0
-1 9 -13 13 13 0
-2 8 -7 13 0
-2 -1 -9 -8 -13 13 0
2 -8 -7 -13 13 13 13 13 0
2 7 13 -13 -13 -13 0
-9 -8 -7 13 -13 13 0
-1 -13 13 -13 13 -13 0
9 -13 0
-3 -2 9 8 13 13 0
3 -7 -13 13 13 0
2 1 8 7 -13 0
13 13 -13 -13 13 -13 0
-3 -2 7 -13 0
7 -13 0
-2 -9 -8 -7 -13 -13 0
-3 8 -7 13 13 0
3 7 -13 -13 13 0
3 9 7 13 -13 13 0
-9 -8 13 -13 -13 0
2 1 9 8 -13 -13 0
-3 1 -8 13 13 13 0
6 0
-9 -13 -13 13 13 -13 -13 0
-9 -8 13 13 -13 13 -13 0
-9 -8 -13 13 -13 0